sat
(:added-eqs                       19406
 :arith-eq-adapter                1033
 :arith-bound-propagations-lp     1602
 :arith-branch                    47
 :arith-conflicts                 2954
 :arith-cube-calls                16
 :arith-diseq                     13334
 :arith-fixed-eqs                 3396
 :arith-gcd-calls                 466
 :arith-gcd-conflict              2
 :arith-gomory-cuts               26
 :arith-grobner-calls             553
 :arith-grobner-conflicts         168
 :arith-hnf-calls                 2
 :arith-horner-calls              145
 :arith-horner-conflicts          3
 :arith-horner-cross-nested-forms 10056
 :arith-lower                     17589
 :arith-make-feasible             11367
 :arith-max-columns               1229
 :arith-max-rows                  611
 :arith-nla-add-bounds            141
 :arith-nla-lemmas                1417
 :arith-nla-propagate-bounds      1117
 :arith-nla-propagate-eq          18614
 :arith-nra-calls                 27
 :arith-offset-eqs                4652
 :arith-patches                   464
 :arith-patches-success           394
 :arith-upper                     12611
 :binary-propagations             67096
 :conflicts                       608
 :decisions                       134098
 :del-clause                      3406
 :elim-unconstrained              68
 :final-checks                    1187
 :max-memory                      34.48
 :memory                          19.30
 :minimized-lits                  3568
 :mk-bool-var                     8143
 :mk-clause                       5219
 :mk-clause-binary                10769
 :num-allocs                      1075108799
 :num-checks                      1
 :propagations                    100235
 :restarts                        5
 :rlimit-count                    2904410
 :time                            1.53
 :total-time                      1.54)
